instances_and_solutions/roster/eprime/param/52_2_3.param
language ESSENCE' 1.0
letting shiftRequirements = [[12, 1, 27, 12], [11, 2, 27, 12], [12, 1, 2, 37], [12, 1, 2, 37], [1, 1, 2, 48], [39, 1, 1, 11], [39, 1, 1, 11]]
letting numberOfWeeks = 52
letting s_min = 2
letting s_max = 3
